(set-logic QF_S)
(declare-fun var0 () String)
(assert (str.in.re var0 (re.++ (re.* (re.+ (re.+ (re.union (re.* (re.+ (str.to.re "0"))) (re.* (re.* (str.to.re "111"))))))) (re.union (re.union (re.* (re.union (re.* (re.+ (str.to.re "2"))) (re.* (re.+ (str.to.re "33"))))) (re.* (re.+ (re.union (re.* (str.to.re "44")) (re.* (str.to.re "55")))))) (re.union (re.+ (re.union (re.union (re.union (str.to.re "66") (str.to.re "7")) (re.union (str.to.re "888") (str.to.re "999"))) (re.union (re.union (str.to.re "aaa") (str.to.re "bbb")) (re.union (str.to.re "cc") (str.to.re "dd"))))) (re.+ (re.+ (re.+ (re.union (str.to.re "ee") (str.to.re "f"))))))))))
(assert (<= 15 (str.len var0)))
(check-sat)